Version identifier: 22.1.0.0 | 2022-03-09 | 1a383f8ce
CPXPARAM_Threads                                 1
CPXPARAM_MIP_Strategy_VariableSelect             3
CPXPARAM_TimeLimit                               590.63601384799995
1 of 1 MIP starts provided solutions.
MIP start 'm1' defined initial solution with objective 392.0000.
Tried aggregator 1 time.
MIP Presolve eliminated 13 rows and 0 columns.
Reduced MIP has 2811 rows, 10000 columns, and 128480 nonzeros.
Reduced MIP has 10000 binaries, 0 generals, 0 SOSs, and 0 indicators.
Presolve time = 0.08 sec. (64.69 ticks)
Probing time = 0.01 sec. (8.59 ticks)
Tried aggregator 1 time.
Detecting symmetries...
Reduced MIP has 2811 rows, 10000 columns, and 128480 nonzeros.
Reduced MIP has 10000 binaries, 0 generals, 0 SOSs, and 0 indicators.
Presolve time = 0.10 sec. (73.99 ticks)
Probing time = 0.01 sec. (8.59 ticks)
Clique table members: 1596.
MIP emphasis: balance optimality and feasibility.
MIP search method: dynamic search.
Parallel mode: none, using 1 thread.
Root relaxation solution time = 2.24 sec. (2267.98 ticks)

        Nodes                                         Cuts/
   Node  Left     Objective  IInf  Best Integer    Best Bound    ItCnt     Gap

*     0+    0                          392.0000    10000.0000              --- 
      0     0      400.0000  1535      392.0000      400.0000     6543    2.04%
*     0+    0                          394.0000      400.0000             1.52%
*     0+    0                          396.0000      400.0000             1.01%
      0     0        cutoff            396.0000      400.0000     6543    1.01%
Detecting symmetries...
      0     2      400.0000   196      396.0000      400.0000     6543    1.01%
Elapsed time = 27.11 sec. (28411.49 ticks, tree = 0.01 MB, solutions = 3)
      1     3      400.0000   337      396.0000      400.0000    18089    1.01%
      2     4      400.0000   407      396.0000      400.0000    23931    1.01%
      3     5      400.0000   407      396.0000      400.0000    28457    1.01%
      4     6      400.0000   344      396.0000      400.0000    28529    1.01%
      5     7      400.0000   269      396.0000      400.0000    30451    1.01%
      6     8      400.0000   270      396.0000      400.0000    30700    1.01%
      7     9      400.0000   315      396.0000      400.0000    40083    1.01%
      8    10      400.0000   256      396.0000      400.0000    43195    1.01%
      9    11      400.0000   277      396.0000      400.0000    43734    1.01%
     10    12      400.0000   258      396.0000      400.0000    45468    1.01%
Elapsed time = 46.68 sec. (48365.58 ticks, tree = 0.18 MB, solutions = 3)
     12    14      400.0000   286      396.0000      400.0000    48445    1.01%
     14    16      400.0000   415      396.0000      400.0000    55138    1.01%
     16    18      400.0000   276      396.0000      400.0000    55316    1.01%
     17    19      400.0000   326      396.0000      400.0000    58015    1.01%
     18    20      400.0000   254      396.0000      400.0000    60235    1.01%
     19    21      400.0000   427      396.0000      400.0000    66110    1.01%
     21    23      400.0000   251      396.0000      400.0000    67275    1.01%
     23    25      400.0000   322      396.0000      400.0000    70768    1.01%
     25    27      400.0000   236      396.0000      400.0000    71357    1.01%
     26    28      400.0000   246      396.0000      400.0000    73242    1.01%
Elapsed time = 65.18 sec. (67196.21 ticks, tree = 0.52 MB, solutions = 3)
     27    29      400.0000   247      396.0000      400.0000    74342    1.01%
     29    31      400.0000   240      396.0000      400.0000    74742    1.01%
     30    32      400.0000   273      396.0000      400.0000    78119    1.01%
     32    34      400.0000   258      396.0000      400.0000    79085    1.01%
     33    35      400.0000   257      396.0000      400.0000    82244    1.01%
     34    36      400.0000   218      396.0000      400.0000    85548    1.01%
     35    37      400.0000   285      396.0000      400.0000    89554    1.01%
     36    38      400.0000   171      396.0000      400.0000    95918    1.01%
     37    39      400.0000   219      396.0000      400.0000   104520    1.01%
     38    40      400.0000   180      396.0000      400.0000   106039    1.01%
Elapsed time = 83.64 sec. (85991.76 ticks, tree = 0.85 MB, solutions = 3)
     39    41      400.0000   198      396.0000      400.0000   107933    1.01%
     40    42      400.0000   202      396.0000      400.0000   109087    1.01%
     42    44      400.0000   230      396.0000      400.0000   112277    1.01%
     43    45      400.0000   162      396.0000      400.0000   117455    1.01%
     44    45      400.0000   259      396.0000      400.0000   122431    1.01%
     46    47      400.0000   162      396.0000      400.0000   124247    1.01%
     47    48      400.0000   203      396.0000      400.0000   126239    1.01%
     48    49      400.0000   221      396.0000      400.0000   129413    1.01%
     49    50      400.0000   228      396.0000      400.0000   130019    1.01%
     50    51      400.0000   201      396.0000      400.0000   136437    1.01%
Elapsed time = 111.04 sec. (113590.23 ticks, tree = 1.13 MB, solutions = 3)
     51    52      400.0000   212      396.0000      400.0000   139638    1.01%
     52    53      400.0000   226      396.0000      400.0000   143754    1.01%
     54    55      400.0000   198      396.0000      400.0000   147664    1.01%
     55    56      400.0000   192      396.0000      400.0000   149618    1.01%
     56    57      400.0000   243      396.0000      400.0000   151632    1.01%
     57    58      400.0000   331      396.0000      400.0000   153499    1.01%
     58    59      400.0000   284      396.0000      400.0000   158142    1.01%
     60    61      400.0000   267      396.0000      400.0000   158960    1.01%
     61    62      400.0000   483      396.0000      400.0000   163028    1.01%
     63    64      400.0000   261      396.0000      400.0000   163230    1.01%
Elapsed time = 128.60 sec. (131550.00 ticks, tree = 1.42 MB, solutions = 3)
     65    66      400.0000   242      396.0000      400.0000   166394    1.01%
     67    68      400.0000   175      396.0000      400.0000   170354    1.01%
     68    69      400.0000   152      396.0000      400.0000   180408    1.01%
     70    71      400.0000   182      396.0000      400.0000   184614    1.01%
     71    72      400.0000   356      396.0000      400.0000   191990    1.01%
     72    73      400.0000   236      396.0000      400.0000   196352    1.01%
     74    75      400.0000   177      396.0000      400.0000   197156    1.01%
     75    76      400.0000   184      396.0000      400.0000   202242    1.01%
     77    78      400.0000   171      396.0000      400.0000   207887    1.01%
     79    80      400.0000   143      396.0000      400.0000   208770    1.01%
Elapsed time = 153.53 sec. (157046.47 ticks, tree = 1.77 MB, solutions = 3)
     80    81      400.0000   152      396.0000      400.0000   210085    1.01%
     81    82      400.0000   453      396.0000      400.0000   216802    1.01%
     82    83      400.0000   408      396.0000      400.0000   222366    1.01%
     83    84      400.0000   147      396.0000      400.0000   226909    1.01%
     85    86      400.0000   188      396.0000      400.0000   228229    1.01%
     86    87      400.0000   322      396.0000      400.0000   231860    1.01%
     87    88      400.0000   266      396.0000      400.0000   233923    1.01%
     89    90      400.0000   188      396.0000      400.0000   234622    1.01%
     90    91      400.0000   278      396.0000      400.0000   238005    1.01%
     92    93      400.0000   192      396.0000      400.0000   238673    1.01%
Elapsed time = 172.28 sec. (176018.53 ticks, tree = 2.03 MB, solutions = 3)
     93    94      400.0000   522      396.0000      400.0000   242679    1.01%
     95    96      400.0000   171      396.0000      400.0000   243312    1.01%
     96    97      400.0000   164      396.0000      400.0000   246643    1.01%
     98    99      400.0000   207      396.0000      400.0000   251430    1.01%
     99   100      400.0000   448      396.0000      400.0000   253858    1.01%
    100   101      400.0000   189      396.0000      400.0000   255538    1.01%
    102   103      400.0000   459      396.0000      400.0000   261585    1.01%
    103   104      400.0000   444      396.0000      400.0000   265461    1.01%
    105   106      400.0000   199      396.0000      400.0000   267179    1.01%
    106   107      400.0000   310      396.0000      400.0000   273166    1.01%
Elapsed time = 192.90 sec. (196857.15 ticks, tree = 2.37 MB, solutions = 3)
    107   108      400.0000   185      396.0000      400.0000   276342    1.01%
    109   110      400.0000   187      396.0000      400.0000   279157    1.01%
    110   111      400.0000   190      396.0000      400.0000   280643    1.01%
    112   113      400.0000   366      396.0000      400.0000   284636    1.01%
    114   115      400.0000   254      396.0000      400.0000   286931    1.01%
    115   116      400.0000   477      396.0000      400.0000   290432    1.01%
    117   118      400.0000   234      396.0000      400.0000   290970    1.01%
    118   119      400.0000   267      396.0000      400.0000   294714    1.01%
    119   120      400.0000   292      396.0000      400.0000   298666    1.01%
    120   121      400.0000   236      396.0000      400.0000   298908    1.01%
Elapsed time = 210.90 sec. (214923.76 ticks, tree = 2.71 MB, solutions = 3)
    122   123      400.0000   479      396.0000      400.0000   303002    1.01%
    125   126      400.0000   308      396.0000      400.0000   305795    1.01%
    128   129      400.0000   194      396.0000      400.0000   306159    1.01%
    129   130      400.0000   206      396.0000      400.0000   308276    1.01%
    131   132      400.0000   140      396.0000      400.0000   311387    1.01%
    132   133      400.0000   338      396.0000      400.0000   312800    1.01%
    133   134      400.0000   294      396.0000      400.0000   314033    1.01%
    134   135      400.0000   472      396.0000      400.0000   318260    1.01%
    136   137      400.0000   488      396.0000      400.0000   319635    1.01%
    139   140      400.0000   261      396.0000      400.0000   326157    1.01%
Elapsed time = 230.38 sec. (234654.60 ticks, tree = 3.17 MB, solutions = 3)
    140   141      400.0000   307      396.0000      400.0000   327843    1.01%
    145   146      400.0000   363      396.0000      400.0000   335907    1.01%
    148   149      400.0000   289      396.0000      400.0000   343933    1.01%
    150   151      400.0000   244      396.0000      400.0000   352903    1.01%
    155   156      400.0000   274      396.0000      400.0000   368306    1.01%
    159   160      400.0000   357      396.0000      400.0000   374501    1.01%
    161   162      400.0000   192      396.0000      400.0000   382111    1.01%
    166   167      400.0000   214      396.0000      400.0000   386368    1.01%
    170   171      400.0000   127      396.0000      400.0000   394227    1.01%
    173   174      400.0000   407      396.0000      400.0000   402766    1.01%
Elapsed time = 292.55 sec. (295998.85 ticks, tree = 4.00 MB, solutions = 3)
    178   179      400.0000   214      396.0000      400.0000   408937    1.01%
    182   182      400.0000   204      396.0000      400.0000   413824    1.01%
    185   185      400.0000   506      396.0000      400.0000   421357    1.01%
    189   189      400.0000   234      396.0000      400.0000   428690    1.01%
    193   192      400.0000   226      396.0000      400.0000   434453    1.01%
    197   196      400.0000   272      396.0000      400.0000   443966    1.01%
    200   199      400.0000   192      396.0000      400.0000   450240    1.01%
    205   204      400.0000   177      396.0000      400.0000   455020    1.01%
    208   207      400.0000   159      396.0000      400.0000   461384    1.01%
    212   211      400.0000   165      396.0000      400.0000   467657    1.01%
Elapsed time = 337.18 sec. (340579.52 ticks, tree = 4.93 MB, solutions = 3)
    217   215      400.0000   161      396.0000      400.0000   475245    1.01%
    220   218      400.0000   341      396.0000      400.0000   481270    1.01%
    226   224      400.0000   405      396.0000      400.0000   487622    1.01%
    230   228      400.0000   431      396.0000      400.0000   494847    1.01%
    235   232      400.0000   378      396.0000      400.0000   500649    1.01%
    241   238      400.0000   342      396.0000      400.0000   506568    1.01%
    246   243      400.0000   488      396.0000      400.0000   514379    1.01%
    251   248      400.0000   421      396.0000      400.0000   521142    1.01%
    257   254      400.0000   334      396.0000      400.0000   525701    1.01%
    265   261      400.0000   323      396.0000      400.0000   531295    1.01%
Elapsed time = 384.82 sec. (387649.13 ticks, tree = 6.22 MB, solutions = 3)
    269   264      400.0000   463      396.0000      400.0000   537441    1.01%
    273   268      400.0000   335      396.0000      400.0000   544715    1.01%
    278   273      400.0000   315      396.0000      400.0000   549650    1.01%
    281   276      400.0000   418      396.0000      400.0000   555391    1.01%
    285   279      400.0000   237      396.0000      400.0000   562555    1.01%
    289   283      400.0000   267      396.0000      400.0000   568560    1.01%
    293   287      400.0000   521      396.0000      400.0000   577234    1.01%
    297   291      400.0000   221      396.0000      400.0000   585998    1.01%
    301   295      400.0000   540      396.0000      400.0000   595544    1.01%
    306   300      400.0000   308      396.0000      400.0000   603183    1.01%
Elapsed time = 428.62 sec. (429965.08 ticks, tree = 7.22 MB, solutions = 3)
    311   305      400.0000   499      396.0000      400.0000   614004    1.01%
    316   310      400.0000   359      396.0000      400.0000   621068    1.01%
    320   314      400.0000   258      396.0000      400.0000   626390    1.01%
    324   318      400.0000   357      396.0000      400.0000   638319    1.01%
    327   321      400.0000   345      396.0000      400.0000   652739    1.01%
    329   323      399.9480   566      396.0000      400.0000   666735    1.01%
    334   328      400.0000   274      396.0000      400.0000   677013    1.01%
    338   332      400.0000   245      396.0000      400.0000   687722    1.01%
    341   335      399.9734   435      396.0000      400.0000   705355    1.01%
    346   340      399.9734   395      396.0000      400.0000   714930    1.01%
Elapsed time = 479.69 sec. (477921.02 ticks, tree = 8.22 MB, solutions = 3)
    349   342      400.0000   230      396.0000      400.0000   725835    1.01%
    353   345      399.9491   413      396.0000      400.0000   737407    1.01%
    357   349      400.0000   125      396.0000      400.0000   748440    1.01%
    360   352      399.9469   343      396.0000      400.0000   765190    1.01%
    364   356      399.8982   336      396.0000      400.0000   776398    1.01%
    369   361      400.0000    93      396.0000      400.0000   785359    1.01%
    373   365      399.9491   353      396.0000      400.0000   799147    1.01%
    377   369      399.9469   321      396.0000      400.0000   814159    1.01%
    388   380      399.9734   388      396.0000      400.0000   822350    1.01%
    395   387      398.7500   100      396.0000      400.0000   833462    1.01%
Elapsed time = 528.75 sec. (522946.82 ticks, tree = 9.43 MB, solutions = 3)
Starting limited solution polishing.
*   400+    1                          400.0000      400.0000             0.00%

Root node processing (before b&c):
  Real time             =   27.00 sec. (28297.99 ticks)
Sequential b&c:
  Real time             =  506.93 sec. (499179.75 ticks)
                          ------------
Total (root+branch&cut) =  533.93 sec. (527477.75 ticks)
Primal:	400
Dual:	400
Status:	Optimal
Time:	533.9
Sequence:
	22
	7
	12
	9
	5
	13
	9
	21
	1
	20
	9
	12
	7
	19
	5
	12
	9
	21
	0
	20
	9
	14
	5
	13
	11
	20
	1
	20
	9
	15
	5
	23
	1
	20
	9
	14
	5
	16
	0
	21
	9
	12
	5
	24
	1
	20
	9
	12
	7
	18
	5
	20
	0
	21
	7
	16
	5
	5
	16
	5
	22
	3
	20
	5
	16
	7
	20
	3
	20
	5
	18
	5
	7
	16
	5
	7
	16
	8
	5
	16
	7
	20
	4
	20
	5
	18
	5
	21
	2
	20
	7
	16
	7
	20
	2
	21
	5
	18
	5
	20
	0
	23
	7
	12
	9
	15
	5
	11
	12
	5
	11
	13
	5
	23
	1
	21
	10
	12
	5
	20
	3
	21
	5
	16
	6
	21
	1
	23
	5
	13
	11
	20
	1
	23
	6
	12
	11
	12
	7
	23
	0
	21
	9
	12
	7
	12
	10
	12
	7
	18
	5
	20
	0
	21
	9
	14
	5
	23
	1
	20
	11
	12
	6
	23
	1
	21
	9
	12
	6
	23
	1
	21
	9
	13
	5
	18
	5
	20
	3
	20
	7
	16
	5
	21
	2
	21
	5
	16
	7
	12
	11
	20
	0
	21
	9
	14
	5
	23
	1
	20
	5
	16
	8
	20
	1
	23
	5
	14
	9
	21
	0
	23
	5
	14
	11
	20
	0
	23
	7
	14
	9
	12
	6
	18
	7
	12
	9
	12
	7
	23
	0
	21
	9
	14
	5
	23
	1
	20
	11
	13
	5
	16
	7
	20
	1
	23
	6
	14
	9
	20
	1
	23
	7
	12
	5
	16
	7
	14
	5
	13
	9
	21
	1
	23
	5
	12
	11
	20
	1
	20
	9
	14
	6
	11
	12
	5
	23
	0
	21
	7
	16
	5
	20
	3
	22
	5
	16
	5
	14
	7
	12
	9
	20
	1
	23
	8
	12
	5
	11
	12
	7
	23
	0
	21
	9
	12
	5
	19
	5
	20
	1
	23
	7
	13
	9
	12
	7
	11
	13
	5
	23
	1
	21
	10
	12
	5
	23
	1
	21
	9
	12
	5
	22
	1
	20
	9
	12
	7
	16
	7
	20
	2
	21
	5
	18
	5
	20
	3
	20
	6
	16
	5
	21
	1
	20
	9
	13
	7
	16
	5
	5
	18
	7
	13
	9
	12
	7
	23
	1
	20
	6
	16
	5
	21
	3
	20
	5
	17
	7
	20
	3
	20
	6
	18
	5
	12
	11
	20
	1
	23
	6
	12
	9
	21
	1
	20
	6
	12
	9
	21
